984.45
0 6 33 73 42 41 64 22 61 28 74 0 
0 19 59 11 65 7 14 53 8 35 0 
0 46 34 52 54 13 57 15 37 71 60 20 70 0 
0 26 67 45 5 48 36 47 69 21 0 
0 17 40 12 72 39 10 58 9 0 
0 16 51 63 43 56 23 49 24 3 32 44 0 
0 66 38 31 25 55 18 50 0 
0 75 68 27 4 30 2 1 62 29 0 
